<number of tasks>
50

<cycle time>
1000

<order strength>
0.595


<task times>
1 187
2 297
3 153
4 22
5 253
6 445
7 34
8 142
9 179
10 531
11 233
12 145
13 95
14 462
15 333
16 524
17 79
18 209
19 377
20 477
21 459
22 146
23 78
24 245
25 267
26 310
27 114
28 198
29 545
30 225
31 120
32 191
33 182
34 128
35 388
36 55
37 174
38 175
39 107
40 99
41 275
42 493
43 179
44 176
45 47
46 218
47 231
48 325
49 441
50 66

<precedence relations>
1,4
2,5
3,6
3,7
4,8
5,9
6,9
6,10
6,11
7,9
7,10
7,11
8,14
9,12
9,15
9,16
9,17
9,18
9,19
10,13
10,15
10,16
10,17
10,18
10,19
11,15
11,16
11,17
11,18
11,19
12,20
13,21
14,22
15,22
15,23
16,22
16,23
17,22
17,23
18,22
18,23
19,22
20,24
21,25
22,26
22,28
22,29
22,30
23,27
23,36
24,34
25,35
26,33
27,31
27,34
27,35
28,32
28,36
29,34
29,41
29,42
30,41
31,38
32,39
33,40
34,44
34,45
34,46
35,41
36,37
36,42
36,45
37,43
38,45
39,46
40,44
41,44
41,46
42,44
42,46
43,48
44,47
44,48
47,49
48,50

<end>
